Route #1:
Route #2: 31
Route #3: 24 25
Route #4: 14 8 17
Route #5: 16 26 29
Route #6: 30 3 11 15
Route #7: 21 19 23 10 18 6 5
Route #8: 1
Route #9: 7 27
Route #10: 20
Route #11: 28 4 9 22 2 13
Route #12: 12

Cost: 1978.9166681729762
